p edge 70 474
e 1 6
e 1 9
e 1 12
e 1 13
e 1 15
e 1 19
e 1 20
e 1 25
e 1 26
e 1 28
e 1 34
e 1 41
e 1 47
e 1 48
e 1 55
e 1 56
e 1 59
e 1 61
e 1 65
e 1 66
e 1 67
e 1 70
e 2 5
e 2 7
e 2 16
e 2 17
e 2 18
e 2 22
e 2 25
e 2 28
e 2 33
e 2 40
e 2 50
e 2 53
e 2 54
e 2 55
e 2 64
e 2 65
e 2 70
e 3 12
e 3 18
e 3 19
e 3 21
e 3 22
e 3 25
e 3 39
e 3 40
e 3 43
e 3 44
e 3 47
e 3 56
e 3 58
e 3 67
e 4 9
e 4 11
e 4 13
e 4 17
e 4 19
e 4 22
e 4 25
e 4 26
e 4 27
e 4 36
e 4 53
e 4 55
e 4 57
e 4 58
e 4 59
e 5 12
e 5 18
e 5 22
e 5 25
e 5 28
e 5 29
e 5 31
e 5 39
e 5 46
e 5 54
e 5 59
e 5 63
e 5 64
e 5 68
e 6 11
e 6 13
e 6 14
e 6 26
e 6 31
e 6 34
e 6 42
e 6 47
e 6 54
e 6 55
e 6 60
e 6 62
e 6 68
e 6 69
e 7 9
e 7 16
e 7 17
e 7 21
e 7 24
e 7 27
e 7 28
e 7 29
e 7 33
e 7 44
e 7 47
e 7 53
e 7 56
e 7 65
e 7 66
e 8 19
e 8 21
e 8 25
e 8 31
e 8 33
e 8 43
e 8 44
e 8 48
e 8 49
e 8 57
e 8 60
e 8 61
e 8 68
e 9 15
e 9 18
e 9 21
e 9 28
e 9 29
e 9 32
e 9 36
e 9 47
e 9 49
e 9 54
e 9 56
e 9 57
e 10 19
e 10 23
e 10 24
e 10 25
e 10 27
e 10 29
e 10 32
e 10 34
e 10 42
e 10 46
e 10 47
e 10 48
e 10 49
e 10 53
e 10 54
e 11 21
e 11 22
e 11 23
e 11 30
e 11 31
e 11 41
e 11 51
e 11 54
e 11 55
e 11 56
e 12 14
e 12 15
e 12 16
e 12 17
e 12 22
e 12 23
e 12 24
e 12 54
e 12 56
e 12 58
e 12 59
e 12 60
e 12 61
e 12 63
e 13 20
e 13 33
e 13 40
e 13 48
e 13 54
e 13 59
e 13 70
e 14 21
e 14 25
e 14 26
e 14 28
e 14 30
e 14 33
e 14 37
e 14 39
e 14 41
e 14 42
e 14 56
e 14 66
e 14 68
e 14 70
e 15 24
e 15 25
e 15 26
e 15 27
e 15 34
e 15 36
e 15 37
e 15 47
e 15 54
e 15 55
e 15 57
e 15 59
e 15 61
e 15 63
e 15 64
e 15 66
e 15 67
e 16 18
e 16 34
e 16 47
e 16 52
e 16 53
e 16 54
e 16 55
e 16 60
e 16 66
e 16 70
e 17 33
e 17 36
e 17 41
e 17 53
e 17 62
e 17 68
e 18 21
e 18 27
e 18 31
e 18 38
e 18 41
e 18 52
e 18 60
e 18 65
e 19 22
e 19 31
e 19 33
e 19 50
e 19 56
e 19 60
e 19 61
e 19 64
e 19 67
e 19 69
e 20 22
e 20 38
e 20 39
e 20 50
e 20 51
e 20 52
e 20 58
e 20 66
e 21 31
e 21 45
e 21 59
e 21 60
e 21 67
e 21 69
e 22 23
e 22 30
e 22 35
e 22 36
e 22 37
e 22 38
e 22 43
e 22 44
e 22 45
e 22 46
e 22 53
e 22 63
e 23 34
e 23 42
e 23 46
e 23 50
e 23 52
e 23 54
e 23 56
e 23 64
e 23 68
e 24 30
e 24 38
e 24 39
e 24 43
e 24 48
e 24 51
e 24 59
e 24 60
e 24 61
e 24 64
e 24 67
e 25 28
e 25 29
e 25 35
e 25 37
e 25 38
e 25 41
e 25 42
e 25 44
e 25 45
e 25 48
e 25 57
e 25 59
e 25 64
e 25 66
e 25 67
e 25 68
e 26 31
e 26 37
e 26 51
e 26 53
e 26 54
e 26 67
e 27 28
e 27 32
e 27 33
e 27 35
e 27 44
e 27 50
e 27 55
e 27 58
e 27 60
e 28 30
e 28 39
e 28 53
e 28 55
e 28 56
e 28 61
e 28 66
e 29 31
e 29 36
e 29 38
e 29 42
e 29 43
e 29 47
e 30 46
e 30 47
e 30 54
e 30 59
e 30 61
e 30 64
e 30 66
e 30 70
e 31 45
e 31 47
e 31 54
e 31 57
e 31 60
e 31 63
e 31 64
e 32 37
e 32 42
e 32 43
e 32 48
e 32 50
e 32 53
e 32 65
e 33 38
e 33 41
e 33 48
e 33 63
e 34 36
e 34 40
e 34 41
e 34 57
e 34 58
e 35 36
e 35 41
e 35 53
e 35 68
e 36 37
e 36 42
e 36 59
e 36 61
e 37 44
e 37 59
e 37 61
e 37 67
e 38 41
e 38 45
e 38 63
e 39 47
e 39 59
e 39 63
e 39 65
e 40 41
e 40 49
e 40 50
e 40 59
e 40 60
e 40 69
e 41 46
e 41 47
e 41 51
e 41 57
e 41 62
e 41 63
e 41 65
e 42 43
e 42 48
e 42 49
e 42 55
e 42 62
e 42 67
e 43 49
e 43 57
e 43 62
e 43 63
e 43 69
e 44 55
e 44 66
e 45 47
e 45 49
e 45 57
e 45 60
e 45 68
e 46 51
e 46 54
e 46 62
e 46 65
e 46 67
e 46 70
e 47 55
e 48 58
e 48 59
e 49 51
e 49 57
e 49 65
e 49 66
e 49 69
e 50 55
e 50 56
e 50 58
e 50 65
e 50 68
e 51 52
e 51 61
e 51 68
e 51 69
e 52 56
e 52 58
e 52 61
e 52 67
e 53 63
e 54 60
e 54 63
e 54 68
e 54 70
e 55 58
e 56 62
e 57 69
e 58 63
e 58 65
e 58 66
e 58 67
e 59 61
e 59 62
e 59 69
e 60 67
e 61 65
e 61 69
e 62 66
e 62 69
e 63 65
e 63 67
e 63 70
e 64 65
e 65 69
e 65 70
e 66 67
e 67 68
e 68 69